p cnf 132 596
c p weight 56 0 0
c p weight -56 1 0
c p weight 57 1 0
c p weight -57 1 0
c p weight 129 -1 0
c p weight -129 1 0
c p weight 132 0.5 0
132 0
-51 0
-49 0
-47 0
-45 0
-43 0
-41 0
-39 0
-37 0
-35 0
-33 0
-31 0
-29 0
-27 0
-25 0
-23 0
-21 0
-19 0
-17 0
-15 0
-13 0
-11 0
-9 0
-7 0
-5 0
-3 0
-1 0
52 -51 49 0
52 -51 50 0
-52 51 49 0
-52 51 50 0
52 51 -49 -50 0
-52 -51 -49 -50 0
53 49 -50 0
53 -49 50 0
-53 49 50 0
-53 -49 -50 0
54 55 -52 0
54 -52 53 0
-54 55 52 0
-54 52 53 0
54 -52 -49 0
-54 52 -49 0
54 -55 52 49 -53 0
-54 -55 -52 49 -53 0
55 -49 53 0
-55 49 53 0
-56 53 0
55 -56 -49 0
-55 -56 49 0
55 56 49 -53 0
-55 56 -49 -53 0
-57 53 0
55 -57 49 0
-55 -57 -49 0
55 57 -49 -53 0
-55 57 49 -53 0
58 -54 55 0
58 -54 53 0
-58 54 55 0
-58 54 53 0
58 54 -55 -53 0
-58 -54 -55 -53 0
59 55 -53 0
59 -55 53 0
-59 55 53 0
-59 -55 -53 0
60 -58 55 0
60 -58 48 0
-60 58 55 0
-60 58 48 0
60 -58 47 -59 0
60 -58 -47 59 0
-60 58 47 -59 0
-60 58 -47 59 0
60 58 -55 47 59 -48 0
60 58 -55 -47 -59 -48 0
-60 -58 -55 47 59 -48 0
-60 -58 -55 -47 -59 -48 0
62 55 -47 0
62 -55 47 0
-62 55 47 0
-62 -55 -47 0
61 59 -48 0
61 -59 48 0
-61 59 48 0
-61 -59 -48 0
63 -60 62 0
63 -60 46 0
-63 60 62 0
-63 60 46 0
63 -60 45 -48 0
63 -60 -45 48 0
-63 60 45 -48 0
-63 60 -45 48 0
63 60 -62 45 48 -46 0
63 60 -62 -45 -48 -46 0
-63 -60 -62 45 48 -46 0
-63 -60 -62 -45 -48 -46 0
65 62 -45 0
65 -62 45 0
-65 62 45 0
-65 -62 -45 0
64 48 -46 0
64 -48 46 0
-64 48 46 0
-64 -48 -46 0
66 -63 65 0
66 -63 44 0
-66 63 65 0
-66 63 44 0
66 -63 43 -46 0
66 -63 -43 46 0
-66 63 43 -46 0
-66 63 -43 46 0
66 63 -65 43 46 -44 0
66 63 -65 -43 -46 -44 0
-66 -63 -65 43 46 -44 0
-66 -63 -65 -43 -46 -44 0
68 65 -43 0
68 -65 43 0
-68 65 43 0
-68 -65 -43 0
67 46 -44 0
67 -46 44 0
-67 46 44 0
-67 -46 -44 0
69 -66 68 0
69 -66 42 0
-69 66 68 0
-69 66 42 0
69 -66 41 -44 0
69 -66 -41 44 0
-69 66 41 -44 0
-69 66 -41 44 0
69 66 -68 41 44 -42 0
69 66 -68 -41 -44 -42 0
-69 -66 -68 41 44 -42 0
-69 -66 -68 -41 -44 -42 0
71 68 -41 0
71 -68 41 0
-71 68 41 0
-71 -68 -41 0
70 44 -42 0
70 -44 42 0
-70 44 42 0
-70 -44 -42 0
72 -69 71 0
72 -69 40 0
-72 69 71 0
-72 69 40 0
72 -69 39 -42 0
72 -69 -39 42 0
-72 69 39 -42 0
-72 69 -39 42 0
72 69 -71 39 42 -40 0
72 69 -71 -39 -42 -40 0
-72 -69 -71 39 42 -40 0
-72 -69 -71 -39 -42 -40 0
74 71 -39 0
74 -71 39 0
-74 71 39 0
-74 -71 -39 0
73 42 -40 0
73 -42 40 0
-73 42 40 0
-73 -42 -40 0
75 -72 74 0
75 -72 38 0
-75 72 74 0
-75 72 38 0
75 -72 37 -40 0
75 -72 -37 40 0
-75 72 37 -40 0
-75 72 -37 40 0
75 72 -74 37 40 -38 0
75 72 -74 -37 -40 -38 0
-75 -72 -74 37 40 -38 0
-75 -72 -74 -37 -40 -38 0
77 74 -37 0
77 -74 37 0
-77 74 37 0
-77 -74 -37 0
76 40 -38 0
76 -40 38 0
-76 40 38 0
-76 -40 -38 0
78 -75 77 0
78 -75 36 0
-78 75 77 0
-78 75 36 0
78 -75 35 -38 0
78 -75 -35 38 0
-78 75 35 -38 0
-78 75 -35 38 0
78 75 -77 35 38 -36 0
78 75 -77 -35 -38 -36 0
-78 -75 -77 35 38 -36 0
-78 -75 -77 -35 -38 -36 0
80 77 -35 0
80 -77 35 0
-80 77 35 0
-80 -77 -35 0
79 38 -36 0
79 -38 36 0
-79 38 36 0
-79 -38 -36 0
81 -78 80 0
81 -78 34 0
-81 78 80 0
-81 78 34 0
81 -78 33 -36 0
81 -78 -33 36 0
-81 78 33 -36 0
-81 78 -33 36 0
81 78 -80 33 36 -34 0
81 78 -80 -33 -36 -34 0
-81 -78 -80 33 36 -34 0
-81 -78 -80 -33 -36 -34 0
83 80 -33 0
83 -80 33 0
-83 80 33 0
-83 -80 -33 0
82 36 -34 0
82 -36 34 0
-82 36 34 0
-82 -36 -34 0
84 -81 83 0
84 -81 32 0
-84 81 83 0
-84 81 32 0
84 -81 31 -34 0
84 -81 -31 34 0
-84 81 31 -34 0
-84 81 -31 34 0
84 81 -83 31 34 -32 0
84 81 -83 -31 -34 -32 0
-84 -81 -83 31 34 -32 0
-84 -81 -83 -31 -34 -32 0
86 83 -31 0
86 -83 31 0
-86 83 31 0
-86 -83 -31 0
85 34 -32 0
85 -34 32 0
-85 34 32 0
-85 -34 -32 0
87 -84 86 0
87 -84 30 0
-87 84 86 0
-87 84 30 0
87 -84 29 -32 0
87 -84 -29 32 0
-87 84 29 -32 0
-87 84 -29 32 0
87 84 -86 29 32 -30 0
87 84 -86 -29 -32 -30 0
-87 -84 -86 29 32 -30 0
-87 -84 -86 -29 -32 -30 0
89 86 -29 0
89 -86 29 0
-89 86 29 0
-89 -86 -29 0
88 32 -30 0
88 -32 30 0
-88 32 30 0
-88 -32 -30 0
90 -87 89 0
90 -87 28 0
-90 87 89 0
-90 87 28 0
90 -87 27 -30 0
90 -87 -27 30 0
-90 87 27 -30 0
-90 87 -27 30 0
90 87 -89 27 30 -28 0
90 87 -89 -27 -30 -28 0
-90 -87 -89 27 30 -28 0
-90 -87 -89 -27 -30 -28 0
92 89 -27 0
92 -89 27 0
-92 89 27 0
-92 -89 -27 0
91 30 -28 0
91 -30 28 0
-91 30 28 0
-91 -30 -28 0
93 -90 92 0
93 -90 26 0
-93 90 92 0
-93 90 26 0
93 -90 25 -28 0
93 -90 -25 28 0
-93 90 25 -28 0
-93 90 -25 28 0
93 90 -92 25 28 -26 0
93 90 -92 -25 -28 -26 0
-93 -90 -92 25 28 -26 0
-93 -90 -92 -25 -28 -26 0
95 92 -25 0
95 -92 25 0
-95 92 25 0
-95 -92 -25 0
94 28 -26 0
94 -28 26 0
-94 28 26 0
-94 -28 -26 0
96 -93 95 0
96 -93 24 0
-96 93 95 0
-96 93 24 0
96 -93 23 -26 0
96 -93 -23 26 0
-96 93 23 -26 0
-96 93 -23 26 0
96 93 -95 23 26 -24 0
96 93 -95 -23 -26 -24 0
-96 -93 -95 23 26 -24 0
-96 -93 -95 -23 -26 -24 0
98 95 -23 0
98 -95 23 0
-98 95 23 0
-98 -95 -23 0
97 26 -24 0
97 -26 24 0
-97 26 24 0
-97 -26 -24 0
99 -96 98 0
99 -96 22 0
-99 96 98 0
-99 96 22 0
99 -96 21 -24 0
99 -96 -21 24 0
-99 96 21 -24 0
-99 96 -21 24 0
99 96 -98 21 24 -22 0
99 96 -98 -21 -24 -22 0
-99 -96 -98 21 24 -22 0
-99 -96 -98 -21 -24 -22 0
101 98 -21 0
101 -98 21 0
-101 98 21 0
-101 -98 -21 0
100 24 -22 0
100 -24 22 0
-100 24 22 0
-100 -24 -22 0
102 -99 101 0
102 -99 20 0
-102 99 101 0
-102 99 20 0
102 -99 19 -22 0
102 -99 -19 22 0
-102 99 19 -22 0
-102 99 -19 22 0
102 99 -101 19 22 -20 0
102 99 -101 -19 -22 -20 0
-102 -99 -101 19 22 -20 0
-102 -99 -101 -19 -22 -20 0
104 101 -19 0
104 -101 19 0
-104 101 19 0
-104 -101 -19 0
103 22 -20 0
103 -22 20 0
-103 22 20 0
-103 -22 -20 0
105 -102 104 0
105 -102 18 0
-105 102 104 0
-105 102 18 0
105 -102 17 -20 0
105 -102 -17 20 0
-105 102 17 -20 0
-105 102 -17 20 0
105 102 -104 17 20 -18 0
105 102 -104 -17 -20 -18 0
-105 -102 -104 17 20 -18 0
-105 -102 -104 -17 -20 -18 0
107 104 -17 0
107 -104 17 0
-107 104 17 0
-107 -104 -17 0
106 20 -18 0
106 -20 18 0
-106 20 18 0
-106 -20 -18 0
108 -105 107 0
108 -105 16 0
-108 105 107 0
-108 105 16 0
108 -105 15 -18 0
108 -105 -15 18 0
-108 105 15 -18 0
-108 105 -15 18 0
108 105 -107 15 18 -16 0
108 105 -107 -15 -18 -16 0
-108 -105 -107 15 18 -16 0
-108 -105 -107 -15 -18 -16 0
110 107 -15 0
110 -107 15 0
-110 107 15 0
-110 -107 -15 0
109 18 -16 0
109 -18 16 0
-109 18 16 0
-109 -18 -16 0
111 -108 110 0
111 -108 14 0
-111 108 110 0
-111 108 14 0
111 -108 13 -16 0
111 -108 -13 16 0
-111 108 13 -16 0
-111 108 -13 16 0
111 108 -110 13 16 -14 0
111 108 -110 -13 -16 -14 0
-111 -108 -110 13 16 -14 0
-111 -108 -110 -13 -16 -14 0
113 110 -13 0
113 -110 13 0
-113 110 13 0
-113 -110 -13 0
112 16 -14 0
112 -16 14 0
-112 16 14 0
-112 -16 -14 0
114 -111 113 0
114 -111 12 0
-114 111 113 0
-114 111 12 0
114 -111 11 -14 0
114 -111 -11 14 0
-114 111 11 -14 0
-114 111 -11 14 0
114 111 -113 11 14 -12 0
114 111 -113 -11 -14 -12 0
-114 -111 -113 11 14 -12 0
-114 -111 -113 -11 -14 -12 0
116 113 -11 0
116 -113 11 0
-116 113 11 0
-116 -113 -11 0
115 14 -12 0
115 -14 12 0
-115 14 12 0
-115 -14 -12 0
117 -114 116 0
117 -114 10 0
-117 114 116 0
-117 114 10 0
117 -114 9 -12 0
117 -114 -9 12 0
-117 114 9 -12 0
-117 114 -9 12 0
117 114 -116 9 12 -10 0
117 114 -116 -9 -12 -10 0
-117 -114 -116 9 12 -10 0
-117 -114 -116 -9 -12 -10 0
119 116 -9 0
119 -116 9 0
-119 116 9 0
-119 -116 -9 0
118 12 -10 0
118 -12 10 0
-118 12 10 0
-118 -12 -10 0
120 -117 119 0
120 -117 8 0
-120 117 119 0
-120 117 8 0
120 -117 7 -10 0
120 -117 -7 10 0
-120 117 7 -10 0
-120 117 -7 10 0
120 117 -119 7 10 -8 0
120 117 -119 -7 -10 -8 0
-120 -117 -119 7 10 -8 0
-120 -117 -119 -7 -10 -8 0
122 119 -7 0
122 -119 7 0
-122 119 7 0
-122 -119 -7 0
121 10 -8 0
121 -10 8 0
-121 10 8 0
-121 -10 -8 0
123 -120 122 0
123 -120 6 0
-123 120 122 0
-123 120 6 0
123 -120 5 -8 0
123 -120 -5 8 0
-123 120 5 -8 0
-123 120 -5 8 0
123 120 -122 5 8 -6 0
123 120 -122 -5 -8 -6 0
-123 -120 -122 5 8 -6 0
-123 -120 -122 -5 -8 -6 0
125 122 -5 0
125 -122 5 0
-125 122 5 0
-125 -122 -5 0
124 8 -6 0
124 -8 6 0
-124 8 6 0
-124 -8 -6 0
126 -123 125 0
126 -123 4 0
-126 123 125 0
-126 123 4 0
126 -123 3 -6 0
126 -123 -3 6 0
-126 123 3 -6 0
-126 123 -3 6 0
126 123 -125 3 6 -4 0
126 123 -125 -3 -6 -4 0
-126 -123 -125 3 6 -4 0
-126 -123 -125 -3 -6 -4 0
128 125 -3 0
128 -125 3 0
-128 125 3 0
-128 -125 -3 0
127 6 -4 0
127 -6 4 0
-127 6 4 0
-127 -6 -4 0
129 -126 128 0
129 -126 2 0
-129 126 128 0
-129 126 2 0
129 -126 1 -4 0
129 -126 -1 4 0
-129 126 1 -4 0
-129 126 -1 4 0
129 126 -128 1 4 -2 0
129 126 -128 -1 -4 -2 0
-129 -126 -128 1 4 -2 0
-129 -126 -128 -1 -4 -2 0
131 128 -1 0
131 -128 1 0
-131 128 1 0
-131 -128 -1 0
130 4 -2 0
130 -4 2 0
-130 4 2 0
-130 -4 -2 0
-131 0
-128 0
-130 0
-125 0
-127 0
-122 0
-124 0
-119 0
-121 0
-116 0
-118 0
-113 0
-115 0
-110 0
-112 0
-107 0
-109 0
-104 0
-106 0
-101 0
-103 0
-98 0
-100 0
-95 0
-97 0
-92 0
-94 0
-89 0
-91 0
-86 0
-88 0
-83 0
-85 0
-80 0
-82 0
-77 0
-79 0
-74 0
-76 0
-71 0
-73 0
-68 0
-70 0
-65 0
-67 0
-62 0
-64 0
-55 0
-61 0
